nApps = 199
nRes = 9
nActs = 396
nNetworks = 6

assignmentToResources = [2,1,3,2,2,3,3,3,3,3,1,1,1,3,3,3,2,3,3,2,1,1,3,1,1,1,3,2,2,1,1,2,2,3,1,2,1,2,3,3,1,2,3,2,3,2,3,3,3,1,1,3,1,1,3,1,3,1,3,3,3,3,3,2,3,1,3,3,2,1,3,3,2,2,1,1,1,1,3,1,2,1,1,2,2,1,1,3,1,2,1,1,3,1,2,3,1,3,2,1,5,5,4,6,6,5,5,6,6,6,6,6,6,6,6,6,6,6,6,6,6,4,4,6,6,5,5,5,6,6,6,6,5,5,5,4,4,4,4,6,6,4,4,4,4,6,5,5,5,4,4,4,4,4,5,5,5,6,4,4,5,4,4,4,5,5,5,6,6,6,6,5,5,5,5,5,5,5,6,6,4,4,4,4,6,6,6,6,6,6,6,6,6,6,6,6,6,6,6,6,5,6,6,5,5,5,5,4,4,6,4,5,4,4,6,5,6,6,4,5,6,5,5,4,4,4,4,8,5,9,4,8,6,8,6,7,5,9,4,9,4,9,6,8,5,9,6,7,6,8,5,7,4,9,6,8,5,7,4,8,6,8,5,7,4,8,5,9,4,8,9,9,8,8,7,9,7,7,7,8,7,8,8,7,7,7,8,7,8,7,7,9,8,8,8,7,7,7,7,7,7,7,9,9,7,8,8,8,8,8,7,9,8,8,9,7,7,9,7,8,9,8,8,9,7,9,9,7,9,9,9,9,9,9,7,9,7,7,8,7,7,7,7,7,7,9,7,9,7,8,9,9,9,9,7,7,8,7,7,8,7,7,7,7,8,8,7,7,7,8,9,7,7,7,9,9,9,9,9,7,8,7,9,9,8,7,7,8,9,7,7,9,7,9,9,9];

processingTimes = [144,48,136,120,72,112,72,128,64,128,136,120,128,56,112,152,40,72,56,48,64,136,88,128,104,136,136,112,144,80,104,136,152,112,112,120,144,160,96,120,104,120,136,48,120,104,112,152,72,56,104,120,120,104,112,136,136,104,48,168,120,120,128,56,136,128,144,160,112,104,136,112,72,104,96,56,168,160,136,128,112,88,120,136,80,80,168,96,136,48,56,112,160,56,152,120,168,128,112,128,5,5,200,3,3,3,4,4,4,500,5,4,3,3,500,13,500,6,3,3,8,3,3,3,3,4,3,4,4,4,4,3,4,4,4,4,3,3,1000,8,3,23,4,4,4,4,3,4,3,1000,500,4,4,3,4,4,13,3,3,500,500,4,3,500,5,5,3,4,4,500,4,3,500,13,13,4,3,8,4,8,500,13,500,4,3,4,3,500,500,4,4,500,4,4,500,3,4,4,3,4,4,100,500,8,100,100,3,3,3,3,1000,3,3,4,500,3,3,3,3,500,4,3,3,3,4,4,7,7,500,500,500,500,500,500,500,500,500,500,500,500,500,500,500,500,500,500,500,500,4,4,3,3,3,3,3,3,4,4,4,4,500,500,500,500,500,500,500,500,3,3,5,5,200,3,3,3,4,4,4,500,5,4,3,3,500,13,500,6,3,3,8,3,3,3,3,4,3,4,4,4,4,3,4,4,4,4,3,3,1000,8,3,23,4,4,4,4,3,4,3,1000,500,4,4,3,4,4,13,3,3,500,500,4,3,500,5,5,3,4,4,500,4,3,500,13,13,4,3,8,4,8,500,13,500,4,3,4,3,500,500,4,4,500,4,4,500,3,4,4,3,4,4,100,500,8,100,100,3,3,3,3,1000,3,3,4,500,3,3,3,3,500,4,3,3,3,4,4];

periods = [50000,2000,20000,100000,2000,20000,20000,100000,50000,20000,20000,100000,20000,100000,100000,10000,10000,100000,10000,10000,100000,100000,10000,10000,50000,10000,10000,20000,10000,100000,10000,10000,20000,10000,20000,20000,5000,100000,100000,100000,10000,20000,20000,100000,10000,1000,100000,100000,20000,10000,20000,5000,100000,20000,20000,1000,100000,10000,20000,10000,100000,100000,20000,20000,100000,20000,100000,100000,100000,100000,1000,10000,100000,1000,20000,100000,20000,10000,10000,100000,20000,100000,20000,10000,20000,100000,50000,10000,100000,20000,100000,20000,20000,100000,10000,100000,20000,20000,20000,100000,50000,50000,2000,20000,20000,100000,100000,20000,20000,20000,20000,20000,20000,20000,100000,100000,100000,50000,50000,20000,20000,20000,100000,100000,10000,10000,10000,10000,100000,100000,10000,10000,10000,10000,10000,100000,100000,100000,100000,10000,10000,10000,50000,10000,10000,10000,20000,10000,10000,100000,100000,100000,100000,10000,10000,10000,20000,10000,20000,20000,20000,5000,5000,5000,100000,100000,100000,100000,100000,100000,100000,20000,20000,100000,100000,100000,1000,1000,20000,20000,10000,100000,20000,20000,20000,100000,100000,20000,20000,10000,20000,20000,100000,100000,100000,100000,100000,100000,100000,100000,100000,1000,10000,100000,1000,1000,1000,100000,20000,10000,100000,20000,50000,50000,10000,20000,20000,20000,100000,10000,20000,20000,20000,100000,100000,100000,20000,20000,10000,10000,10000,10000,10000,10000,10000,10000,10000,10000,10000,10000,10000,10000,10000,10000,10000,10000,10000,10000,10000,10000,20000,20000,20000,20000,10000,10000,10000,10000,20000,20000,20000,20000,20000,20000,20000,20000,20000,20000,100000,100000,50000,50000,2000,20000,20000,100000,100000,20000,20000,20000,20000,20000,20000,20000,100000,100000,100000,50000,50000,20000,20000,20000,100000,100000,10000,10000,10000,10000,100000,100000,10000,10000,10000,10000,10000,100000,100000,100000,100000,10000,10000,10000,50000,10000,10000,10000,20000,10000,10000,100000,100000,100000,100000,10000,10000,10000,20000,10000,20000,20000,20000,5000,5000,5000,100000,100000,100000,100000,100000,100000,100000,20000,20000,100000,100000,100000,1000,1000,20000,20000,10000,100000,20000,20000,20000,100000,100000,20000,20000,10000,20000,20000,100000,100000,100000,100000,100000,100000,100000,100000,100000,1000,10000,100000,1000,1000,1000,100000,20000,10000,100000,20000,50000,50000,10000,20000,20000,20000,100000,10000,20000,20000,20000,100000,100000,100000];

assignmentToClusters = [1,2,3,4,5,6,7,8,9,10,11,12,13,14,15,16,16,17,18,19,20,21,22,16,23,16,16,24,16,25,26,27,28,29,30,31,32,33,34,35,27,36,37,38,16,39,40,40,41,16,42,43,44,45,46,47,48,16,24,49,50,51,46,46,52,46,53,54,55,55,56,19,57,58,24,59,60,16,16,61,11,62,63,16,24,64,65,27,66,42,67,68,69,70,16,40,71,72,46,73,74,75,76,77,78,79,80,81,82,83,84,85,86,87,88,89,90,91,92,93,94,95,96,97,98,99,100,101,102,103,104,105,106,107,108,109,110,111,112,113,114,115,116,117,118,119,120,121,122,123,124,125,126,127,128,129,130,131,132,133,134,135,136,137,138,139,140,141,142,143,144,145,146,147,148,149,150,151,152,153,154,155,156,157,158,159,160,161,162,163,164,165,166,167,168,169,170,171,172,173,174,175,176,177,178,179,180,181,182,183,184,185,186,187,188,189,190,191,192,193,194,195,196,197,198,199,11,11,16,16,16,16,16,16,16,16,16,16,16,16,16,16,16,16,16,16,16,16,19,19,24,24,24,24,27,27,27,27,42,42,46,46,46,46,46,46,46,46,55,55,74,75,76,77,78,79,80,81,82,83,84,85,86,87,88,89,90,91,92,93,94,95,96,97,98,99,100,101,102,103,104,105,106,107,108,109,110,111,112,113,114,115,116,117,118,119,120,121,122,123,124,125,126,127,128,129,130,131,132,133,134,135,136,137,138,139,140,141,142,143,144,145,146,147,148,149,150,151,152,153,154,155,156,157,158,159,160,161,162,163,164,165,166,167,168,169,170,171,172,173,174,175,176,177,178,179,180,181,182,183,184,185,186,187,188,189,190,191,192,193,194,195,196,197,198,199];

precedenceAdjList = [[],[],[],[],[],[],[],[],[],[],[],[],[],[],[],[229],[],[],[],[249],[],[],[],[247],[],[49],[245],[84],[243],[],[],[255],[],[],[],[],[],[],[],[],[257],[],[],[],[237],[],[47],[95],[],[77,235],[],[],[],[],[],[],[],[],[253],[],[],[],[267],[261],[],[263],[],[],[269],[],[],[],[],[],[251],[],[],[],[239,241],[],[227],[],[],[231,233],[],[],[],[],[],[259],[],[],[],[],[],[],[],[],[265],[],[],[],[],[],[],[],[],[],[],[],[],[],[],[],[],[],[],[],[],[],[],[],[],[],[],[],[],[],[],[],[],[],[],[],[],[],[],[],[],[],[],[],[],[],[],[],[],[],[],[],[],[],[],[],[],[],[],[],[],[],[],[],[],[],[],[],[],[],[],[],[],[],[],[],[],[],[],[],[],[],[],[],[],[],[],[],[],[],[],[],[],[],[],[],[],[],[],[],[],[],[],[],[],[],[],[],[],[],[],[],[],[],[],[],[],[],[],[],[],[],[],[],[],[],[],[],[10],[226],[83],[228],[49],[230],[26],[232],[44],[234],[94],[236],[49],[238],[57],[240],[78],[242],[16],[244],[26],[246],[71],[248],[27],[250],[74],[252],[87],[254],[31],[256],[50],[258],[54],[260],[63],[262],[65],[264],[98],[266],[69],[268],[100],[101],[102],[103],[104],[105],[106],[107],[108],[109],[110],[111],[112],[113],[114],[115],[116],[117],[118],[119],[120],[121],[122],[123],[124],[125],[126],[127],[128],[129],[130],[131],[132],[133],[134],[135],[136],[137],[138],[139],[140],[141],[142],[143],[144],[145],[146],[147],[148],[149],[150],[151],[152],[153],[154],[155],[156],[157],[158],[159],[160],[161],[162],[163],[164],[165],[166],[167],[168],[169],[170],[171],[172],[173],[174],[175],[176],[177],[178],[179],[180],[181],[182],[183],[184],[185],[186],[187],[188],[189],[190],[191],[192],[193],[194],[195],[196],[197],[198],[199],[200],[201],[202],[203],[204],[205],[206],[207],[208],[209],[210],[211],[212],[213],[214],[215],[216],[217],[218],[219],[220],[221],[222],[223],[224],[225]];